(set-info :smt-lib-version 2.6)
(set-logic QF_BV)
(set-info :source |
 Patrice Godefroid, SAGE (systematic dynamic test generation)
 For more information: http://research.microsoft.com/en-us/um/people/pg/public_psfiles/ndss2008.pdf
|)
(set-info :category "industrial")
(set-info :status unsat)
(declare-fun T1_1912 () (_ BitVec 8))
(declare-fun T1_1656 () (_ BitVec 8))
(declare-fun T1_1400 () (_ BitVec 8))
(declare-fun T1_1144 () (_ BitVec 8))
(declare-fun T1_888 () (_ BitVec 8))
(declare-fun T1_632 () (_ BitVec 8))
(declare-fun T1_376 () (_ BitVec 8))
(declare-fun T1_120 () (_ BitVec 8))
(declare-fun T1_2168 () (_ BitVec 8))
(declare-fun T1_2424 () (_ BitVec 8))
(declare-fun T1_2680 () (_ BitVec 8))
(declare-fun T1_2936 () (_ BitVec 8))
(assert (let ((?v_8 ((_ zero_extend 24) T1_1912)) (?v_22 ((_ zero_extend 24) T1_1656)) (?v_18 ((_ zero_extend 24) T1_1400)) (?v_14 ((_ zero_extend 24) T1_1144)) (?v_10 ((_ zero_extend 24) T1_888)) (?v_4 ((_ zero_extend 24) T1_632)) (?v_2 ((_ zero_extend 24) T1_376)) (?v_0 ((_ zero_extend 24) T1_120))) (let ((?v_3 (bvadd ?v_0 (_ bv122 32)))) (let ((?v_5 (bvadd ?v_3 ?v_2))) (let ((?v_6 (bvadd ?v_5 (_ bv1 32)))) (let ((?v_7 (bvadd ?v_6 ?v_4))) (let ((?v_13 (bvadd ?v_7 (_ bv1 32)))) (let ((?v_12 (bvadd ?v_13 ?v_10))) (let ((?v_17 (bvadd ?v_12 (_ bv1 32)))) (let ((?v_16 (bvadd ?v_17 ?v_14))) (let ((?v_21 (bvadd ?v_16 (_ bv1 32)))) (let ((?v_20 (bvadd ?v_21 ?v_18))) (let ((?v_25 (bvadd ?v_20 (_ bv1 32)))) (let ((?v_24 (bvadd ?v_25 ?v_22))) (let ((?v_26 (bvadd (bvadd ?v_24 (_ bv1 32)) ?v_8))) (let ((?v_23 (bvadd (bvadd ?v_26 (_ bv1 32)) ((_ zero_extend 24) T1_2168)))) (let ((?v_19 (bvadd (bvadd ?v_23 (_ bv1 32)) ((_ zero_extend 24) T1_2424)))) (let ((?v_15 (bvadd (bvadd ?v_19 (_ bv1 32)) ((_ zero_extend 24) T1_2680)))) (let ((?v_11 (bvadd (bvadd ?v_15 (_ bv1 32)) ((_ zero_extend 24) T1_2936)))) (let ((?v_9 (bvsub (_ bv2957 32) (bvadd ?v_11 (_ bv1 32)))) (?v_1 (bvadd ?v_0 (_ bv121 32)))) (and true (bvslt ?v_8 (_ bv0 32)) (bvult (_ bv1 32) (bvsub (_ bv2957 32) ?v_1)) (bvsle (bvsub ?v_0 (_ bv255 32)) (_ bv0 32)) (bvslt (_ bv0 32) (bvsub ?v_0 (_ bv254 32))) (bvule ?v_1 (_ bv2957 32)) (bvule (_ bv0 32) ?v_1) (bvsle (bvsub ?v_2 (_ bv255 32)) (_ bv0 32)) (bvslt (_ bv0 32) (bvsub ?v_2 (_ bv254 32))) (bvslt (_ bv0 32) ?v_0) (not (= ?v_0 (_ bv0 32))) (bvult ?v_0 (_ bv2836 32)) (bvsle (_ bv0 32) ?v_0) (bvult (_ bv0 8) T1_120) (not (= T1_120 (_ bv0 8))) (bvult (_ bv1 32) (bvsub (_ bv2957 32) ?v_5)) (bvslt (_ bv0 32) ?v_2) (not (= ?v_2 (_ bv0 32))) (bvult ?v_2 (bvsub (_ bv2957 32) ?v_3)) (bvsle (_ bv0 32) ?v_2) (bvult (_ bv0 8) T1_376) (not (= T1_376 (_ bv0 8))) (bvsle (bvsub ?v_4 (_ bv255 32)) (_ bv0 32)) (bvslt (_ bv0 32) (bvsub ?v_4 (_ bv254 32))) (bvule ?v_5 (_ bv2957 32)) (bvule (_ bv0 32) ?v_5) (bvult (_ bv1 32) (bvsub (_ bv2957 32) ?v_7)) (bvslt (_ bv0 32) ?v_4) (not (= ?v_4 (_ bv0 32))) (bvult ?v_4 (bvsub (_ bv2957 32) ?v_6)) (bvsle (_ bv0 32) ?v_4) (bvult (_ bv0 8) T1_632) (not (= T1_632 (_ bv0 8))) (= ?v_9 (_ bv1 32)) (bvule ?v_9 (_ bv1 32)) (bvsle (bvsub ?v_10 (_ bv255 32)) (_ bv0 32)) (bvslt (_ bv0 32) (bvsub ?v_10 (_ bv254 32))) (bvule ?v_7 (_ bv2957 32)) (bvule (_ bv0 32) ?v_7) (bvult (_ bv1 32) (bvsub (_ bv2957 32) ?v_11)) (bvult (_ bv1 32) (bvsub (_ bv2957 32) ?v_12)) (bvslt (_ bv0 32) ?v_10) (not (= ?v_10 (_ bv0 32))) (bvult ?v_10 (bvsub (_ bv2957 32) ?v_13)) (bvsle (_ bv0 32) ?v_10) (bvult (_ bv0 8) T1_888) (not (= T1_888 (_ bv0 8))) (not (= T1_2936 (_ bv0 8))) (bvule ?v_11 (_ bv2957 32)) (bvule (_ bv0 32) ?v_11) (bvsle (bvsub ?v_14 (_ bv255 32)) (_ bv0 32)) (bvslt (_ bv0 32) (bvsub ?v_14 (_ bv254 32))) (bvule ?v_12 (_ bv2957 32)) (bvule (_ bv0 32) ?v_12) (bvult (_ bv1 32) (bvsub (_ bv2957 32) ?v_15)) (bvult (_ bv1 32) (bvsub (_ bv2957 32) ?v_16)) (bvslt (_ bv0 32) ?v_14) (not (= ?v_14 (_ bv0 32))) (bvult ?v_14 (bvsub (_ bv2957 32) ?v_17)) (bvsle (_ bv0 32) ?v_14) (bvult (_ bv0 8) T1_1144) (not (= T1_1144 (_ bv0 8))) (not (= T1_2680 (_ bv0 8))) (bvule ?v_15 (_ bv2957 32)) (bvule (_ bv0 32) ?v_15) (bvsle (bvsub ?v_18 (_ bv255 32)) (_ bv0 32)) (bvslt (_ bv0 32) (bvsub ?v_18 (_ bv254 32))) (bvule ?v_16 (_ bv2957 32)) (bvule (_ bv0 32) ?v_16) (bvult (_ bv1 32) (bvsub (_ bv2957 32) ?v_19)) (bvult (_ bv1 32) (bvsub (_ bv2957 32) ?v_20)) (bvslt (_ bv0 32) ?v_18) (not (= ?v_18 (_ bv0 32))) (bvult ?v_18 (bvsub (_ bv2957 32) ?v_21)) (bvsle (_ bv0 32) ?v_18) (bvult (_ bv0 8) T1_1400) (not (= T1_1400 (_ bv0 8))) (not (= T1_2424 (_ bv0 8))) (bvule ?v_19 (_ bv2957 32)) (bvule (_ bv0 32) ?v_19) (bvsle (bvsub ?v_22 (_ bv255 32)) (_ bv0 32)) (bvslt (_ bv0 32) (bvsub ?v_22 (_ bv254 32))) (bvule ?v_20 (_ bv2957 32)) (bvule (_ bv0 32) ?v_20) (bvult (_ bv1 32) (bvsub (_ bv2957 32) ?v_23)) (bvult (_ bv1 32) (bvsub (_ bv2957 32) ?v_24)) (bvslt (_ bv0 32) ?v_22) (not (= ?v_22 (_ bv0 32))) (bvult ?v_22 (bvsub (_ bv2957 32) ?v_25)) (bvsle (_ bv0 32) ?v_22) (bvult (_ bv0 8) T1_1656) (not (= T1_1656 (_ bv0 8))) (not (= T1_2168 (_ bv0 8))) (bvule ?v_23 (_ bv2957 32)) (bvule (_ bv0 32) ?v_23) (bvule ?v_24 (_ bv2957 32)) (bvule (_ bv0 32) ?v_24) (bvult (_ bv1 32) (bvsub (_ bv2957 32) ?v_26)) (bvule ?v_26 (_ bv2957 32)) (bvule (_ bv0 32) ?v_26) (bvult (_ bv0 8) T1_1912) (not (= T1_1912 (_ bv0 8))))))))))))))))))))))))
(check-sat)
(exit)
